  Job Started  at 12:01.21 17th October    2016

  Number of CPUs =     1

  Total number of configurations input =   1

*  Input for Configuration =   1                                               *

  Formula = P18O72Li7Ti11Al

  Number of irreducible atoms/shells =     181

  Total number atoms/shells =     181

  Dimensionality = 3               :  Bulk

  Cartesian lattice vectors (Angstroms) :

        8.510500    0.000000    0.000000
       -4.255250    7.370309    0.000000
        0.000000    0.000000   20.827500

  Cell parameters (Angstroms/Degrees):

  a =       8.5105    alpha =  90.0000
  b =       8.5105    beta  =  90.0000
  c =      20.8275    gamma = 120.0000

  Initial cell volume =        1306.405280 Angs**3

  Temperature of configuration =  0.000     K

  Pressure of configuration =         0.000 GPa

  Fractional coordinates of asymmetric unit :

   No.  Atomic       x           y          z         Charge      Occupancy
        Label      (Frac)      (Frac)     (Frac)        (e)         (Frac)
      1 P     c    0.290500    0.000000    0.250000     5.00000    1.000000
      2 P     c    0.709500 *  0.709500 *  0.250000 *   5.00000    1.000000
      3 P     c    0.000000 *  0.290500 *  0.250000 *   5.00000    1.000000
      4 P     c    0.290500 *  0.290500 *  0.750000 *   5.00000    1.000000
      5 P     c    0.000000 *  0.709500 *  0.750000 *   5.00000    1.000000
      6 P     c    0.709500 *  0.000000 *  0.750000 *   5.00000    1.000000
      7 P     c    0.957167 *  0.333333 *  0.583333 *   5.00000    1.000000
      8 P     c    0.376167 *  0.042833 *  0.583333 *   5.00000    1.000000
      9 P     c    0.666667 *  0.623833 *  0.583333 *   5.00000    1.000000
     10 P     c    0.957167 *  0.623833 *  0.083333 *   5.00000    1.000000
     11 P     c    0.666667 *  0.042833 *  0.083333 *   5.00000    1.000000
     12 P     c    0.376167 *  0.333333 *  0.083333 *   5.00000    1.000000
     13 P     c    0.623833 *  0.666667 *  0.916667 *   5.00000    1.000000
     14 P     c    0.042833 *  0.376167 *  0.916667 *   5.00000    1.000000
     15 P     c    0.333333 *  0.957167 *  0.916667 *   5.00000    1.000000
     16 P     c    0.623833 *  0.957167 *  0.416667 *   5.00000    1.000000
     17 P     c    0.333333 *  0.376167 *  0.416667 *   5.00000    1.000000
     18 P     c    0.042833 *  0.666667 *  0.416667 *   5.00000    1.000000
     19 O     c    0.189700 *  0.005200 *  0.310070 *   0.86000    1.000000
     20 O     c    0.815500 *  0.810300 *  0.310070 *   0.86000    1.000000
     21 O     c    0.994800 *  0.184500 *  0.310070 *   0.86000    1.000000
     22 O     c    0.189700 *  0.184500 *  0.810070 *   0.86000    1.000000
     23 O     c    0.994800 *  0.810300 *  0.810070 *   0.86000    1.000000
     24 O     c    0.815500 *  0.005200 *  0.810070 *   0.86000    1.000000
     25 O     c    0.810300 *  0.994800 *  0.689930 *   0.86000    1.000000
     26 O     c    0.184500 *  0.189700 *  0.689930 *   0.86000    1.000000
     27 O     c    0.005200 *  0.815500 *  0.689930 *   0.86000    1.000000
     28 O     c    0.810300 *  0.815500 *  0.189930 *   0.86000    1.000000
     29 O     c    0.005200 *  0.189700 *  0.189930 *   0.86000    1.000000
     30 O     c    0.184500 *  0.994800 *  0.189930 *   0.86000    1.000000
     31 O     c    0.856367 *  0.338533 *  0.643403 *   0.86000    1.000000
     32 O     c    0.482167 *  0.143633 *  0.643403 *   0.86000    1.000000
     33 O     c    0.661467 *  0.517833 *  0.643403 *   0.86000    1.000000
     34 O     c    0.856367 *  0.517833 *  0.143403 *   0.86000    1.000000
     35 O     c    0.661467 *  0.143633 *  0.143403 *   0.86000    1.000000
     36 O     c    0.482167 *  0.338533 *  0.143403 *   0.86000    1.000000
     37 O     c    0.476967 *  0.328133 *  0.023263 *   0.86000    1.000000
     38 O     c    0.851167 *  0.523033 *  0.023263 *   0.86000    1.000000
     39 O     c    0.671867 *  0.148833 *  0.023263 *   0.86000    1.000000
     40 O     c    0.476967 *  0.148833 *  0.523263 *   0.86000    1.000000
     41 O     c    0.671867 *  0.523033 *  0.523263 *   0.86000    1.000000
     42 O     c    0.851167 *  0.328133 *  0.523263 *   0.86000    1.000000
     43 O     c    0.523033 *  0.671867 *  0.976737 *   0.86000    1.000000
     44 O     c    0.148833 *  0.476967 *  0.976737 *   0.86000    1.000000
     45 O     c    0.328133 *  0.851167 *  0.976737 *   0.86000    1.000000
     46 O     c    0.523033 *  0.851167 *  0.476737 *   0.86000    1.000000
     47 O     c    0.328133 *  0.476967 *  0.476737 *   0.86000    1.000000
     48 O     c    0.148833 *  0.671867 *  0.476737 *   0.86000    1.000000
     49 O     c    0.143633 *  0.661467 *  0.356597 *   0.86000    1.000000
     50 O     c    0.517833 *  0.856367 *  0.356597 *   0.86000    1.000000
     51 O     c    0.338533 *  0.482167 *  0.356597 *   0.86000    1.000000
     52 O     c    0.143633 *  0.482167 *  0.856597 *   0.86000    1.000000
     53 O     c    0.338533 *  0.856367 *  0.856597 *   0.86000    1.000000
     54 O     c    0.517833 *  0.661467 *  0.856597 *   0.86000    1.000000
     55 O     c    0.024100 *  0.835700 *  0.418810 *   0.86000    1.000000
     56 O     c    0.811600 *  0.975900 *  0.418810 *   0.86000    1.000000
     57 O     c    0.164300 *  0.188400 *  0.418810 *   0.86000    1.000000
     58 O     c    0.024100 *  0.188400 *  0.918810 *   0.86000    1.000000
     59 O     c    0.164300 *  0.975900 *  0.918810 *   0.86000    1.000000
     60 O     c    0.811600 *  0.835700 *  0.918810 *   0.86000    1.000000
     61 O     c    0.975900 *  0.164300 *  0.581190 *   0.86000    1.000000
[...]
     95 Li    c    0.333333 *  0.666667 *  0.166667 *   1.00000    1.000000
     96 Li    c    0.333333 *  0.666667 *  0.666667 *   1.00000    1.000000
     97 Ti    c    0.000000 *  0.000000 *  0.858300 *   4.00000    1.000000
     98 Ti    c    0.000000 *  0.000000 *  0.641700 *   4.00000    1.000000
     99 Ti    c    0.000000 *  0.000000 *  0.141700 *   4.00000    1.000000
    100 Ti    c    0.666667 *  0.333333 *  0.691633 *   4.00000    1.000000
    101 Ti    c    0.666667 *  0.333333 *  0.191633 *   4.00000    1.000000
    102 Ti    c    0.666667 *  0.333333 *  0.975033 *   4.00000    1.000000
    103 Ti    c    0.666667 *  0.333333 *  0.475033 *   4.00000    1.000000
    104 Ti    c    0.333333 *  0.666667 *  0.024967 *   4.00000    1.000000
    105 Ti    c    0.333333 *  0.666667 *  0.524967 *   4.00000    1.000000
    106 Ti    c    0.333333 *  0.666667 *  0.308367 *   4.00000    1.000000
    107 Ti    c    0.333333 *  0.666667 *  0.808367 *   4.00000    1.000000
    108 Al    c    0.000000 *  0.000000 *  0.358300 *   3.00000    1.000000
    109 Li    c    0.333333 *  0.666667 *  0.416667 *   1.00000    1.000000
    110 O     s    0.189700 *  0.005200 *  0.310070 *  -2.86000    1.000000
    111 O     s    0.815500 *  0.810300 *  0.310070 *  -2.86000    1.000000
    112 O     s    0.994800 *  0.184500 *  0.310070 *  -2.86000    1.000000
    113 O     s    0.189700 *  0.184500 *  0.810070 *  -2.86000    1.000000
    114 O     s    0.994800 *  0.810300 *  0.810070 *  -2.86000    1.000000
    115 O     s    0.815500 *  0.005200 *  0.810070 *  -2.86000    1.000000
    116 O     s    0.810300 *  0.994800 *  0.689930 *  -2.86000    1.000000
    117 O     s    0.184500 *  0.189700 *  0.689930 *  -2.86000    1.000000
    118 O     s    0.005200 *  0.815500 *  0.689930 *  -2.86000    1.000000
    119 O     s    0.810300 *  0.815500 *  0.189930 *  -2.86000    1.000000
    120 O     s    0.005200 *  0.189700 *  0.189930 *  -2.86000    1.000000
    121 O     s    0.184500 *  0.994800 *  0.189930 *  -2.86000    1.000000
    122 O     s    0.856367 *  0.338533 *  0.643403 *  -2.86000    1.000000
    123 O     s    0.482167 *  0.143633 *  0.643403 *  -2.86000    1.000000
    124 O     s    0.661467 *  0.517833 *  0.643403 *  -2.86000    1.000000
    125 O     s    0.856367 *  0.517833 *  0.143403 *  -2.86000    1.000000
    126 O     s    0.661467 *  0.143633 *  0.143403 *  -2.86000    1.000000
    127 O     s    0.482167 *  0.338533 *  0.143403 *  -2.86000    1.000000
    128 O     s    0.476967 *  0.328133 *  0.023263 *  -2.86000    1.000000
    129 O     s    0.851167 *  0.523033 *  0.023263 *  -2.86000    1.000000
    130 O     s    0.671867 *  0.148833 *  0.023263 *  -2.86000    1.000000
    131 O     s    0.476967 *  0.148833 *  0.523263 *  -2.86000    1.000000
    132 O     s    0.671867 *  0.523033 *  0.523263 *  -2.86000    1.000000
    133 O     s    0.851167 *  0.328133 *  0.523263 *  -2.86000    1.000000
    134 O     s    0.523033 *  0.671867 *  0.976737 *  -2.86000    1.000000
    135 O     s    0.148833 *  0.476967 *  0.976737 *  -2.86000    1.000000
    136 O     s    0.328133 *  0.851167 *  0.976737 *  -2.86000    1.000000
    137 O     s    0.523033 *  0.851167 *  0.476737 *  -2.86000    1.000000
    138 O     s    0.328133 *  0.476967 *  0.476737 *  -2.86000    1.000000
    139 O     s    0.148833 *  0.671867 *  0.476737 *  -2.86000    1.000000
    140 O     s    0.143633 *  0.661467 *  0.356597 *  -2.86000    1.000000
    141 O     s    0.517833 *  0.856367 *  0.356597 *  -2.86000    1.000000
    142 O     s    0.338533 *  0.482167 *  0.356597 *  -2.86000    1.000000
    143 O     s    0.143633 *  0.482167 *  0.856597 *  -2.86000    1.000000
    144 O     s    0.338533 *  0.856367 *  0.856597 *  -2.86000    1.000000
    145 O     s    0.517833 *  0.661467 *  0.856597 *  -2.86000    1.000000
    146 O     s    0.024100 *  0.835700 *  0.418810 *  -2.86000    1.000000
    147 O     s    0.811600 *  0.975900 *  0.418810 *  -2.86000    1.000000
    148 O     s    0.164300 *  0.188400 *  0.418810 *  -2.86000    1.000000
    149 O     s    0.024100 *  0.188400 *  0.918810 *  -2.86000    1.000000
    150 O     s    0.164300 *  0.975900 *  0.918810 *  -2.86000    1.000000
    151 O     s    0.811600 *  0.835700 *  0.918810 *  -2.86000    1.000000
    152 O     s    0.975900 *  0.164300 *  0.581190 *  -2.86000    1.000000
    153 O     s    0.188400 *  0.024100 *  0.581190 *  -2.86000    1.000000
    154 O     s    0.835700 *  0.811600 *  0.581190 *  -2.86000    1.000000
    155 O     s    0.975900 *  0.811600 *  0.081190 *  -2.86000    1.000000
    156 O     s    0.835700 *  0.024100 *  0.081190 *  -2.86000    1.000000
    157 O     s    0.188400 *  0.164300 *  0.081190 *  -2.86000    1.000000
    158 O     s    0.690767 *  0.169033 *  0.752143 *  -2.86000    1.000000
    159 O     s    0.478267 *  0.309233 *  0.752143 *  -2.86000    1.000000
    160 O     s    0.830967 *  0.521733 *  0.752143 *  -2.86000    1.000000
    161 O     s    0.690767 *  0.521733 *  0.252143 *  -2.86000    1.000000
    162 O     s    0.830967 *  0.309233 *  0.252143 *  -2.86000    1.000000
    163 O     s    0.478267 *  0.169033 *  0.252143 *  -2.86000    1.000000
    164 O     s    0.642567 *  0.497633 *  0.914523 *  -2.86000    1.000000
    165 O     s    0.855067 *  0.357433 *  0.914523 *  -2.86000    1.000000
    166 O     s    0.502367 *  0.144933 *  0.914523 *  -2.86000    1.000000
[...]
   114  O     s     0.976818    0.797485    0.806266    0.000000
   115  O     s     0.820153    0.018271    0.806266    0.000000
   116  O     s     0.798328    0.975386    0.695540    0.000000
   117  O     s     0.176543    0.196761    0.695540    0.000000
   118  O     s     0.019704    0.818546    0.695540    0.000000
   119  O     s     0.800558    0.818136    0.193818    0.000000
   120  O     s     0.017064    0.194531    0.193818    0.000000
   121  O     s     0.176952    0.978025    0.193818    0.000000
   122  O     s     0.860864    0.345780    0.641066    0.000000
   123  O     s     0.484402    0.134225    0.641066    0.000000
   124  O     s     0.649309    0.510687    0.641066    0.000000
   125  O     s     0.864640    0.509150    0.137403    0.000000
   126  O     s     0.643995    0.130449    0.137403    0.000000
   127  O     s     0.485940    0.351094    0.137403    0.000000
   128  O     s     0.463689    0.306740    0.026937    0.000000
   129  O     s     0.842537    0.531400    0.026937    0.000000
   130  O     s     0.688349    0.152552    0.026937    0.000000
   131  O     s     0.465397    0.152766    0.529882    0.000000
   132  O     s     0.686855    0.529692    0.529882    0.000000
   133  O     s     0.842323    0.308235    0.529882    0.000000
   134  O     s     0.531310    0.685040    0.971934    0.000000
   135  O     s     0.153216    0.463780    0.971934    0.000000
   136  O     s     0.310050    0.841873    0.971934    0.000000
   137  O     s     0.520715    0.837621    0.474948    0.000000
   138  O     s     0.316393    0.474375    0.474948    0.000000
   139  O     s     0.157468    0.678697    0.474948    0.000000
   140  O     s     0.141598    0.648520    0.363472    0.000000
   141  O     s     0.506407    0.853491    0.363472    0.000000
   142  O     s     0.346570    0.488682    0.363472    0.000000
   143  O     s     0.130963    0.485634    0.861353    0.000000
   144  O     s     0.354157    0.864127    0.861353    0.000000
   145  O     s     0.509455    0.640932    0.861353    0.000000
   146  O     s     0.017742    0.817287    0.416387    0.000000
   147  O     s     0.799030    0.977346    0.416387    0.000000
   148  O     s     0.177803    0.196059    0.416387    0.000000
   149  O     s     0.020795    0.189373    0.911561    0.000000
   150  O     s     0.168064    0.974294    0.911561    0.000000
   151  O     s     0.805716    0.827025    0.911561    0.000000
   152  O     s     0.973105    0.164293    0.590045    0.000000
   153  O     s     0.190674    0.021984    0.590045    0.000000
   154  O     s     0.830796    0.804415    0.590045    0.000000
   155  O     s     0.976011    0.805453    0.087880    0.000000
   156  O     s     0.828928    0.019078    0.087880    0.000000
   157  O     s     0.189636    0.166161    0.087880    0.000000
   158  O     s     0.685830    0.159142    0.746341    0.000000
   159  O     s     0.472797    0.309259    0.746341    0.000000
   160  O     s     0.835947    0.522292    0.746341    0.000000
   161  O     s     0.685698    0.518795    0.243211    0.000000
   162  O     s     0.832583    0.309391    0.243211    0.000000
   163  O     s     0.476294    0.162506    0.243211    0.000000
   164  O     s     0.641217    0.498889    0.922067    0.000000
   165  O     s     0.857158    0.353872    0.922067    0.000000
   166  O     s     0.496200    0.137931    0.922067    0.000000
   167  O     s     0.639933    0.137763    0.423527    0.000000
   168  O     s     0.497317    0.355157    0.423527    0.000000
   169  O     s     0.857326    0.497773    0.423527    0.000000
   170  O     s     0.354424    0.493941    0.077009    0.000000
   171  O     s     0.139003    0.640665    0.077009    0.000000
   172  O     s     0.501148    0.856086    0.077009    0.000000
   173  O     s     0.354857    0.857556    0.582900    0.000000
   174  O     s     0.502185    0.640232    0.582900    0.000000
   175  O     s     0.137533    0.492904    0.582900    0.000000
   176  O     s     0.310491    0.832803    0.253273    0.000000
   177  O     s     0.521798    0.684598    0.253273    0.000000
   178  O     s     0.162286    0.473291    0.253273    0.000000
   179  O     s     0.306243    0.470769    0.756371    0.000000
   180  O     s     0.164012    0.688846    0.756371    0.000000
   181  O     s     0.524320    0.831077    0.756371    0.000000

  Final Cartesian lattice vectors (Angstroms) :

        8.233124   -0.000000   -0.000000
       -4.116562    7.130095   -0.000000
       -0.000000   -0.000000   20.985017

  Final cell parameters and derivatives :

       a            8.233124 Angstrom     dE/de1(xx)     0.000061 eV/strain
       b            8.233124 Angstrom     dE/de2(yy)     0.000071 eV/strain
       c           20.985017 Angstrom     dE/de3(zz)     0.000110 eV/strain
       alpha       90.000000 Degrees      dE/de4(yz)    -0.000005 eV/strain
       beta        90.000000 Degrees      dE/de5(xz)    -0.000099 eV/strain
       gamma      120.000000 Degrees      dE/de6(xy)    -0.000128 eV/strain

  Primitive cell volume =          1231.882477 Angs**3

  Density of cell =      3.116149 g/cm**3

  Non-primitive cell volume =          1231.882477 Angs**3

  Final internal derivatives :

   No.  Atomic          a             b             c           Radius
        Label          (eV)          (eV)          (eV)        (eV/Angs)
      1 P     c       0.000000      0.000000      0.000000      0.000000
      2 P     c      -0.000009     -0.000024      0.000029      0.000000
      3 P     c       0.000066     -0.000044     -0.000080      0.000000
      4 P     c       0.000009     -0.000017     -0.000041      0.000000
      5 P     c      -0.000014     -0.000001      0.000020      0.000000
      6 P     c       0.000013     -0.000039     -0.000006      0.000000
      7 P     c       0.000015      0.000049     -0.000096      0.000000
      8 P     c      -0.000045      0.000056     -0.000017      0.000000
      9 P     c      -0.000004      0.000012      0.000067      0.000000
     10 P     c      -0.000016      0.000009      0.000008      0.000000
     11 P     c       0.000008     -0.000020      0.000026      0.000000
     12 P     c       0.000004     -0.000018      0.000122      0.000000
     13 P     c       0.000008      0.000008     -0.000005      0.000000
     14 P     c       0.000000      0.000024      0.000035      0.000000
     15 P     c      -0.000001      0.000003      0.000013      0.000000
     16 P     c      -0.000107      0.000053     -0.000029      0.000000
     17 P     c      -0.000107      0.000030     -0.000037      0.000000
     18 P     c       0.000109     -0.000014      0.000143      0.000000
     19 O     c      -0.000157      0.000091      0.000239      0.000000
     20 O     c       0.000015      0.000016      0.000046      0.000000
     21 O     c       0.000056     -0.000090      0.000147      0.000000
     22 O     c      -0.000001     -0.000024      0.000031      0.000000
     23 O     c      -0.000005      0.000009      0.000022      0.000000
     24 O     c       0.000016     -0.000013      0.000038      0.000000
     25 O     c       0.000014     -0.000001      0.000009      0.000000
     26 O     c      -0.000008     -0.000004      0.000013      0.000000
     27 O     c      -0.000005      0.000014     -0.000020      0.000000
     28 O     c       0.000013      0.000020     -0.000101      0.000000
     29 O     c       0.000021      0.000000     -0.000077      0.000000
     30 O     c      -0.000063      0.000023      0.000196      0.000000
     31 O     c       0.000006     -0.000002      0.000053      0.000000
     32 O     c       0.000041     -0.000004      0.000041      0.000000
     33 O     c      -0.000027      0.000010      0.000083      0.000000
     34 O     c      -0.000014      0.000009     -0.000024      0.000000
     35 O     c      -0.000002     -0.000004      0.000009      0.000000
     36 O     c       0.000006     -0.000000     -0.000000      0.000000
     37 O     c       0.000015     -0.000004     -0.000023      0.000000
     38 O     c      -0.000023     -0.000014     -0.000032      0.000000
     39 O     c      -0.000018      0.000017      0.000011      0.000000
     40 O     c      -0.000027      0.000018      0.000021      0.000000
     41 O     c       0.000048     -0.000044     -0.000129      0.000000
     42 O     c      -0.000040      0.000012      0.000021      0.000000
     43 O     c      -0.000019      0.000003      0.000034      0.000000
     44 O     c       0.000007      0.000013     -0.000010      0.000000
     45 O     c      -0.000004      0.000006     -0.000018      0.000000
     46 O     c       0.000017     -0.000052      0.000162      0.000000
     47 O     c      -0.000064      0.000063      0.000143      0.000000
     48 O     c      -0.000018      0.000029     -0.000097      0.000000
     49 O     c       0.000010     -0.000025     -0.000102      0.000000
     50 O     c      -0.000006      0.000030      0.000125      0.000000
     51 O     c       0.000001      0.000028     -0.000052      0.000000
     52 O     c       0.000005      0.000015     -0.000009      0.000000
     53 O     c       0.000002     -0.000004     -0.000018      0.000000
     54 O     c      -0.000011      0.000004     -0.000041      0.000000
     55 O     c      -0.000040      0.000070     -0.000006      0.000000
     56 O     c       0.000222     -0.000138      0.000241      0.000000
     57 O     c      -0.000018     -0.000064      0.000020      0.000000
     58 O     c       0.000008     -0.000006      0.000011      0.000000
     59 O     c      -0.000004     -0.000008      0.000019      0.000000
     60 O     c       0.000006     -0.000014      0.000020      0.000000
[...]
     95 Li    c       0.000006     -0.000011      0.000008      0.000000
     96 Li    c      -0.000002     -0.000001     -0.000005      0.000000
     97 Ti    c       0.000009     -0.000019     -0.000074      0.000000
     98 Ti    c       0.000024     -0.000021      0.000137      0.000000
     99 Ti    c       0.000070     -0.000044     -0.000025      0.000000
    100 Ti    c      -0.000034     -0.000009      0.000019      0.000000
    101 Ti    c      -0.000038     -0.000004     -0.000032      0.000000
    102 Ti    c       0.000007      0.000005      0.000067      0.000000
    103 Ti    c       0.000078     -0.000033      0.000088      0.000000
    104 Ti    c      -0.000010     -0.000001     -0.000012      0.000000
    105 Ti    c      -0.000013      0.000008      0.000069      0.000000
    106 Ti    c      -0.000001      0.000011      0.000011      0.000000
    107 Ti    c       0.000008      0.000000      0.000022      0.000000
    108 Al    c      -0.000086      0.000053     -0.000025      0.000000
    109 Li    c      -0.000001      0.000019     -0.000023      0.000000
    110 O     s       0.000114     -0.000065      0.000231      0.000000
    111 O     s      -0.000057      0.000005     -0.000075      0.000000
    112 O     s      -0.000067      0.000096      0.000106      0.000000
    113 O     s      -0.000002      0.000031     -0.000014      0.000000
    114 O     s       0.000015     -0.000017     -0.000024      0.000000
    115 O     s      -0.000022      0.000011     -0.000012      0.000000
    116 O     s      -0.000041      0.000023     -0.000006      0.000000
    117 O     s       0.000010      0.000014      0.000017      0.000000
    118 O     s       0.000022     -0.000041      0.000031      0.000000
    119 O     s       0.000014      0.000014      0.000014      0.000000
    120 O     s      -0.000031      0.000036     -0.000036      0.000000
    121 O     s       0.000104     -0.000142     -0.000288      0.000000
    122 O     s       0.000029     -0.000001     -0.000037      0.000000
    123 O     s      -0.000038      0.000006      0.000055      0.000000
    124 O     s      -0.000022      0.000036      0.000001      0.000000
    125 O     s       0.000020     -0.000031      0.000054      0.000000
    126 O     s       0.000018     -0.000015     -0.000072      0.000000
    127 O     s       0.000004     -0.000002     -0.000103      0.000000
    128 O     s      -0.000023      0.000010      0.000062      0.000000
    129 O     s       0.000036      0.000001      0.000023      0.000000
    130 O     s       0.000032     -0.000047      0.000030      0.000000
    131 O     s       0.000019      0.000005     -0.000090      0.000000
    132 O     s      -0.000014      0.000009     -0.000040      0.000000
    133 O     s       0.000052     -0.000015      0.000048      0.000000
    134 O     s       0.000013     -0.000002     -0.000040      0.000000
    135 O     s      -0.000007     -0.000012      0.000001      0.000000
    136 O     s       0.000003      0.000004     -0.000019      0.000000
    137 O     s      -0.000052      0.000032      0.000115      0.000000
    138 O     s       0.000062     -0.000069     -0.000073      0.000000
    139 O     s      -0.000021      0.000009      0.000079      0.000000
    140 O     s      -0.000012     -0.000027     -0.000035      0.000000
    141 O     s      -0.000018     -0.000025     -0.000242      0.000000
    142 O     s       0.000029     -0.000023     -0.000083      0.000000
    143 O     s      -0.000009     -0.000023      0.000004      0.000000
    144 O     s      -0.000011      0.000020      0.000040      0.000000
    145 O     s       0.000014      0.000001      0.000012      0.000000
    146 O     s      -0.000076      0.000049      0.000169      0.000000
    147 O     s       0.000055     -0.000056     -0.000200      0.000000
    148 O     s       0.000032     -0.000043      0.000008      0.000000
    149 O     s      -0.000020      0.000018      0.000042      0.000000
    150 O     s       0.000013      0.000009      0.000016      0.000000
    151 O     s      -0.000018      0.000024      0.000040      0.000000
    152 O     s      -0.000006     -0.000001     -0.000104      0.000000
    153 O     s      -0.000020     -0.000004      0.000054      0.000000
    154 O     s      -0.000010      0.000077     -0.000164      0.000000
    155 O     s       0.000019      0.000003     -0.000037      0.000000
    156 O     s      -0.000022      0.000020     -0.000014      0.000000
    157 O     s      -0.000003     -0.000007     -0.000103      0.000000
    158 O     s       0.000007     -0.000018      0.000027      0.000000
    159 O     s      -0.000032      0.000008      0.000047      0.000000
    160 O     s       0.000007     -0.000004      0.000015      0.000000
    161 O     s      -0.000012     -0.000008     -0.000024      0.000000
    162 O     s       0.000007      0.000021      0.000033      0.000000
    163 O     s       0.000049     -0.000035      0.000284      0.000000
    164 O     s       0.000011     -0.000003      0.000003      0.000000
    165 O     s       0.000031     -0.000013     -0.000052      0.000000
    166 O     s       0.000019     -0.000024     -0.000011      0.000000
    167 O     s      -0.000059      0.000199     -0.000350      0.000000
    168 O     s       0.000020      0.000103     -0.000021      0.000000
    169 O     s       0.000040      0.000038      0.000127      0.000000
    170 O     s      -0.000023      0.000004     -0.000011      0.000000
    171 O     s      -0.000014     -0.000012      0.000064      0.000000
    172 O     s       0.000004      0.000005      0.000022      0.000000
    173 O     s      -0.000002      0.000027      0.000033      0.000000
    174 O     s       0.000008      0.000014      0.000014      0.000000
    175 O     s      -0.000009      0.000003     -0.000022      0.000000
    176 O     s      -0.000039      0.000130     -0.000153      0.000000
    177 O     s      -0.000014      0.000020      0.000169      0.000000
    178 O     s      -0.000056      0.000035     -0.000092      0.000000
    179 O     s       0.000006     -0.000006     -0.000026      0.000000
    180 O     s      -0.000012     -0.000017     -0.000032      0.000000
    181 O     s       0.000002     -0.000012     -0.000033      0.000000
  Maximum abs         0.000222      0.000199      0.000350      0.000000

  Time to end of optimisation =      23.4312 seconds

  Timing analysis for GULP :

  Task / Subroutine                                          Time (Seconds)
  Calculation of reciprocal space energy and derivatives          0.8534
  Calculation of real space energy and derivatives               22.0958
  Calculation of matrix inversion                                 0.4201
  Global summation overhead                                       0.0004

  Job Finished at 12:01.44 17th October    2016